50, 12263
237, 237
104, 102
397, 396
155, 153
67, 66
402, 402
918, 918
801, 801
766, 765
222, 222
537, 537
277, 276
173, 171
107, 105
215, 213
928, 927
829, 828
807, 807
801, 801
194, 192
310, 309
627, 627
732, 732
855, 855
881, 879
87, 87
606, 606
672, 672
506, 504
178, 177
474, 474
90, 90
935, 933
866, 864
548, 546
301, 300
909, 909
573, 573
883, 882
849, 849
509, 507
414, 414
599, 597
432, 432
162, 162
306, 306
813, 813
44, 42
47, 45
627, 627
